(set-option :auto-config false)
(set-option :model true)
(set-option :model.partial false)
(set-option :smt.mbqi false)
(define-sort SMT_Elt () Int)
(define-sort SMT_Set () (Array SMT_Elt Bool))
(define-fun smt_set_emp () SMT_Set ((as const SMT_Set) false))
(define-fun smt_set_mem ((x SMT_Elt) (s SMT_Set)) Bool (select s x))
(define-fun smt_set_add ((s SMT_Set) (x SMT_Elt)) SMT_Set (store s x true))
(define-fun smt_set_cup ((s1 SMT_Set) (s2 SMT_Set)) SMT_Set ((_ map or) s1 s2))
(define-fun smt_set_cap ((s1 SMT_Set) (s2 SMT_Set)) SMT_Set ((_ map and) s1 s2))
(define-fun smt_set_com ((s SMT_Set)) SMT_Set ((_ map not) s))
(define-fun smt_set_dif ((s1 SMT_Set) (s2 SMT_Set)) SMT_Set (smt_set_cap s1 (smt_set_com s2)))
(define-fun smt_set_sub ((s1 SMT_Set) (s2 SMT_Set)) Bool (= smt_set_emp (smt_set_dif s1 s2)))
(declare-fun z3v70 () Int)
(declare-fun z3v71 () Int)
(assert (distinct z3v70 z3v71))
(declare-fun z3v72 () Int)
(declare-fun z3v73 () Int)
(assert (distinct z3v72 z3v73))
(declare-fun z3v74 () Int)
(declare-fun z3f75 (Int) Int)
(declare-fun z3v76 () Int)
(declare-fun z3v77 () Int)
(declare-fun z3v78 () Int)
(declare-fun z3f79 (Int) Bool)
(declare-fun z3v80 () Int)
(declare-fun z3v81 () Int)
(declare-fun z3v82 () Int)
(declare-fun z3v83 () Int)
(declare-fun z3v84 () Int)
(declare-fun z3v85 () Int)
(declare-fun z3f86 (Int Int) Int)
(declare-fun z3v87 () Int)
(declare-fun z3v88 () Int)
(declare-fun z3v89 () Int)
(declare-fun z3v90 () Int)
(declare-fun z3f91 (Int) Int)
(declare-fun z3v92 () Int)
(declare-fun z3v93 () Int)
(declare-fun z3v94 () Int)
(push 1)
(assert true)
(assert (= z3v94 z3v74))
(assert (>= (z3f75 z3v94) 0))
(assert (and (>= (z3f75 z3v74) 0) (= z3v77 (z3f75 z3v76)) (z3f79 z3v78) (z3f79 z3v78) (= z3v78 z3v80) (z3f79 z3v81) (z3f79 z3v81) (= z3v81 z3v82) (>= (z3f75 z3v83) 0) (>= (z3f75 z3v84) 0) (= z3v84 z3v85) (= z3v87 (z3f86 z3v85 z3v74)) (= z3v87 z3v88) (>= (z3f75 z3v89) 0) (= z3v89 z3v74) (>= (z3f75 z3v89) 0) (>= (z3f75 z3v76) 0) (z3f79 z3v72) (= (z3f91 z3v90) z3v90) (= (z3f91 z3v92) z3v92) (not (z3f79 z3v73)) (= (z3f91 z3v93) z3v93)))
(push 1)
(assert (not (= (z3f75 z3v94) 0)))
(check-sat)
(pop 1)
(push 1)
(assert (not (>  (z3f75 z3v94) 0)))
(check-sat)
(pop 1)
(push 1)
(assert (not (= z3v77 (z3f75 z3v94))))
(check-sat)
(pop 1)
(push 1)
(assert (not (= (z3f75 z3v94) (+ z3v77 1))))
(check-sat)
(pop 1)
(push 1)
(assert (not (= (z3f75 z3v94) (- z3v77 1))))
(check-sat)
(pop 1)
(push 1)
(assert (not (>= (z3f75 z3v94) (z3f75 z3v74))))
(check-sat)
(pop 1)
(push 1)
(assert (not (>= (z3f75 z3v94) (z3f75 z3v83))))
(check-sat)
(pop 1)
(push 1)
(assert (not (>= (z3f75 z3v94) (z3f75 z3v84))))
(check-sat)
(pop 1)
(push 1)
(assert (not (>= (z3f75 z3v94) (z3f75 z3v76))))
(check-sat)
(pop 1)
(push 1)
(assert (not (<= (z3f75 z3v94) (z3f75 z3v74))))
(check-sat)
(pop 1)
(push 1)
(assert (not (<= (z3f75 z3v94) (z3f75 z3v83))))
(check-sat)
(pop 1)
(push 1)
(assert (not (<= (z3f75 z3v94) (z3f75 z3v84))))
(check-sat)
(pop 1)
(push 1)
(assert (not (<= (z3f75 z3v94) (z3f75 z3v76))))
(check-sat)
(pop 1)
(push 1)
(assert (not (>  (z3f75 z3v94) (z3f75 z3v74))))
(check-sat)
(pop 1)
(push 1)
(assert (not (>  (z3f75 z3v94) (z3f75 z3v83))))
(check-sat)
(pop 1)
(push 1)
(assert (not (>  (z3f75 z3v94) (z3f75 z3v84))))
(check-sat)
(pop 1)
(push 1)
(assert (not (>  (z3f75 z3v94) (z3f75 z3v76))))
(check-sat)
(pop 1)
(push 1)
(assert (not (= (z3f75 z3v94) (z3f75 z3v74))))
(check-sat)
(pop 1)
(push 1)
(assert (not (= (z3f75 z3v94) (z3f75 z3v83))))
(check-sat)
(pop 1)
(push 1)
(assert (not (= (z3f75 z3v94) (z3f75 z3v84))))
(check-sat)
(pop 1)
(push 1)
(assert (not (= (z3f75 z3v94) (z3f75 z3v76))))
(check-sat)
(pop 1)
(push 1)
(assert (not (<  (z3f75 z3v94) (z3f75 z3v74))))
(check-sat)
(pop 1)
(push 1)
(assert (not (<  (z3f75 z3v94) (z3f75 z3v83))))
(check-sat)
(pop 1)
(push 1)
(assert (not (<  (z3f75 z3v94) (z3f75 z3v84))))
(check-sat)
(pop 1)
(push 1)
(assert (not (<  (z3f75 z3v94) (z3f75 z3v76))))
(check-sat)
(pop 1)
(push 1)
(assert (not (= z3v94 z3v83)))
(check-sat)
(pop 1)
(push 1)
(assert (not (= z3v94 z3v84)))
(check-sat)
(pop 1)
(push 1)
(assert (not (= z3v94 z3v76)))
(check-sat)
(pop 1)
(push 1)
(assert (not (<  z3v94 z3v74)))
(check-sat)
(pop 1)
(push 1)
(assert (not (<  z3v94 z3v83)))
(check-sat)
(pop 1)
(push 1)
(assert (not (<  z3v94 z3v84)))
(check-sat)
(pop 1)
(push 1)
(assert (not (<  z3v94 z3v76)))
(check-sat)
(pop 1)
(push 1)
(assert (not (not (= z3v94 z3v74))))
(check-sat)
(pop 1)
(push 1)
(assert (not (not (= z3v94 z3v83))))
(check-sat)
(pop 1)
(push 1)
(assert (not (not (= z3v94 z3v84))))
(check-sat)
(pop 1)
(push 1)
(assert (not (not (= z3v94 z3v76))))
(check-sat)
(pop 1)
(push 1)
(assert (not (>  z3v94 z3v74)))
(check-sat)
(pop 1)
(push 1)
(assert (not (>  z3v94 z3v83)))
(check-sat)
(pop 1)
(push 1)
(assert (not (>  z3v94 z3v84)))
(check-sat)
(pop 1)
(push 1)
(assert (not (>  z3v94 z3v76)))
(check-sat)
(pop 1)
(push 1)
(assert (not (<= z3v94 z3v74)))
(check-sat)
(pop 1)
(push 1)
(assert (not (<= z3v94 z3v83)))
(check-sat)
(pop 1)
(push 1)
(assert (not (<= z3v94 z3v84)))
(check-sat)
(pop 1)
(push 1)
(assert (not (<= z3v94 z3v76)))
(check-sat)
(pop 1)
(push 1)
(assert (not (>= z3v94 z3v74)))
(check-sat)
(pop 1)
(push 1)
(assert (not (>= z3v94 z3v83)))
(check-sat)
(pop 1)
(push 1)
(assert (not (>= z3v94 z3v84)))
(check-sat)
(pop 1)
(push 1)
(assert (not (>= z3v94 z3v76)))
(check-sat)
(pop 1)
(pop 1)
(declare-fun z3v95 () Int)
(declare-fun z3v96 () Int)
(push 1)
(assert true)
(assert (>= (z3f75 z3v96) 0))
(assert (= z3v96 z3v74))
(assert (>= (z3f75 z3v96) (z3f75 z3v74)))
(assert (<= (z3f75 z3v96) (z3f75 z3v74)))
(assert (= (z3f75 z3v96) (z3f75 z3v74)))
(assert (<= z3v96 z3v74))
(assert (>= z3v96 z3v74))
(assert (and (>= (z3f75 z3v74) 0) (= z3v77 (z3f75 z3v76)) (z3f79 z3v78) (z3f79 z3v78) (= z3v78 z3v80) (z3f79 z3v81) (z3f79 z3v81) (= z3v81 z3v82) (>= (z3f75 z3v83) 0) (>= (z3f75 z3v84) 0) (= z3v84 z3v85) (= z3v87 (z3f86 z3v85 z3v74)) (= z3v87 z3v88) (>= (z3f75 z3v95) 0) (>= (z3f75 z3v76) 0) (z3f79 z3v72) (= (z3f91 z3v90) z3v90) (= (z3f91 z3v92) z3v92) (not (z3f79 z3v73)) (= (z3f91 z3v93) z3v93)))
(assert (>= (z3f75 z3v95) 0))
(assert (= z3v95 z3v74))
(assert (>= (z3f75 z3v95) (z3f75 z3v74)))
(assert (<= (z3f75 z3v95) (z3f75 z3v74)))
(assert (= (z3f75 z3v95) (z3f75 z3v74)))
(assert (<= z3v95 z3v74))
(assert (>= z3v95 z3v74))
(push 1)
(assert (not (= (z3f75 z3v96) 0)))
(check-sat)
(pop 1)
(push 1)
(assert (not (>  (z3f75 z3v96) 0)))
(check-sat)
(pop 1)
(push 1)
(assert (not (= z3v77 (z3f75 z3v96))))
(check-sat)
(pop 1)
(push 1)
(assert (not (= (z3f75 z3v96) (+ z3v77 1))))
(check-sat)
(pop 1)
(push 1)
(assert (not (= (z3f75 z3v96) (- z3v77 1))))
(check-sat)
(pop 1)
(push 1)
(assert (not (>= (z3f75 z3v96) (z3f75 z3v83))))
(check-sat)
(pop 1)
(push 1)
(assert (not (>= (z3f75 z3v96) (z3f75 z3v84))))
(check-sat)
(pop 1)
(push 1)
(assert (not (>= (z3f75 z3v96) (z3f75 z3v76))))
(check-sat)
(pop 1)
(push 1)
(assert (not (<= (z3f75 z3v96) (z3f75 z3v83))))
(check-sat)
(pop 1)
(push 1)
(assert (not (<= (z3f75 z3v96) (z3f75 z3v84))))
(check-sat)
(pop 1)
(push 1)
(assert (not (<= (z3f75 z3v96) (z3f75 z3v76))))
(check-sat)
(pop 1)
(push 1)
(assert (not (>  (z3f75 z3v96) (z3f75 z3v74))))
(check-sat)
(pop 1)
(push 1)
(assert (not (>  (z3f75 z3v96) (z3f75 z3v83))))
(check-sat)
(pop 1)
(push 1)
(assert (not (>  (z3f75 z3v96) (z3f75 z3v84))))
(check-sat)
(pop 1)
(push 1)
(assert (not (>  (z3f75 z3v96) (z3f75 z3v76))))
(check-sat)
(pop 1)
(push 1)
(assert (not (= (z3f75 z3v96) (z3f75 z3v83))))
(check-sat)
(pop 1)
(push 1)
(assert (not (= (z3f75 z3v96) (z3f75 z3v84))))
(check-sat)
(pop 1)
(push 1)
(assert (not (= (z3f75 z3v96) (z3f75 z3v76))))
(check-sat)
(pop 1)
(push 1)
(assert (not (<  (z3f75 z3v96) (z3f75 z3v74))))
(check-sat)
(pop 1)
(push 1)
(assert (not (<  (z3f75 z3v96) (z3f75 z3v83))))
(check-sat)
(pop 1)
(push 1)
(assert (not (<  (z3f75 z3v96) (z3f75 z3v84))))
(check-sat)
(pop 1)
(push 1)
(assert (not (<  (z3f75 z3v96) (z3f75 z3v76))))
(check-sat)
(pop 1)
(push 1)
(assert (not (= z3v96 z3v83)))
(check-sat)
(pop 1)
(push 1)
(assert (not (= z3v96 z3v84)))
(check-sat)
(pop 1)
(push 1)
(assert (not (= z3v96 z3v76)))
(check-sat)
(pop 1)
(push 1)
(assert (not (<  z3v96 z3v74)))
(check-sat)
(pop 1)
(push 1)
(assert (not (<  z3v96 z3v83)))
(check-sat)
(pop 1)
(push 1)
(assert (not (<  z3v96 z3v84)))
(check-sat)
(pop 1)
(push 1)
(assert (not (<  z3v96 z3v76)))
(check-sat)
(pop 1)
(push 1)
(assert (not (not (= z3v96 z3v74))))
(check-sat)
(pop 1)
(push 1)
(assert (not (not (= z3v96 z3v83))))
(check-sat)
(pop 1)
(push 1)
(assert (not (not (= z3v96 z3v84))))
(check-sat)
(pop 1)
(push 1)
(assert (not (not (= z3v96 z3v76))))
(check-sat)
(pop 1)
(push 1)
(assert (not (>  z3v96 z3v74)))
(check-sat)
(pop 1)
(push 1)
(assert (not (>  z3v96 z3v83)))
(check-sat)
(pop 1)
(push 1)
(assert (not (>  z3v96 z3v84)))
(check-sat)
(pop 1)
(push 1)
(assert (not (>  z3v96 z3v76)))
(check-sat)
(pop 1)
(push 1)
(assert (not (<= z3v96 z3v83)))
(check-sat)
(pop 1)
(push 1)
(assert (not (<= z3v96 z3v84)))
(check-sat)
(pop 1)
(push 1)
(assert (not (<= z3v96 z3v76)))
(check-sat)
(pop 1)
(push 1)
(assert (not (>= z3v96 z3v83)))
(check-sat)
(pop 1)
(push 1)
(assert (not (>= z3v96 z3v84)))
(check-sat)
(pop 1)
(push 1)
(assert (not (>= z3v96 z3v76)))
(check-sat)
(pop 1)
(pop 1)
(declare-fun z3v97 () Int)
(declare-fun z3v98 () Int)
(push 1)
(assert true)
(assert (>= (z3f75 z3v98) 0))
(assert (>= (z3f75 z3v98) (z3f75 z3v74)))
(assert (<= (z3f75 z3v98) (z3f75 z3v74)))
(assert (= (z3f75 z3v98) (z3f75 z3v74)))
(assert (= z3v98 z3v74))
(assert (<= z3v98 z3v74))
(assert (>= z3v98 z3v74))
(assert (and (>= (z3f75 z3v74) 0) (= z3v77 (z3f75 z3v76)) (z3f79 z3v78) (z3f79 z3v78) (= z3v78 z3v80) (z3f79 z3v81) (z3f79 z3v81) (= z3v81 z3v82) (>= (z3f75 z3v83) 0) (>= (z3f75 z3v84) 0) (= z3v84 z3v85) (= z3v87 (z3f86 z3v85 z3v74)) (= z3v87 z3v88) (>= (z3f75 z3v97) 0) (>= (z3f75 z3v76) 0) (z3f79 z3v72) (= (z3f91 z3v90) z3v90) (= (z3f91 z3v92) z3v92) (not (z3f79 z3v73)) (= (z3f91 z3v93) z3v93)))
(assert (>= (z3f75 z3v97) 0))
(assert (>= (z3f75 z3v97) (z3f75 z3v74)))
(assert (<= (z3f75 z3v97) (z3f75 z3v74)))
(assert (= (z3f75 z3v97) (z3f75 z3v74)))
(assert (= z3v97 z3v74))
(assert (<= z3v97 z3v74))
(assert (>= z3v97 z3v74))
(push 1)
(assert (not (= (z3f75 z3v98) 0)))
(check-sat)
(pop 1)
(push 1)
(assert (not (>  (z3f75 z3v98) 0)))
(check-sat)
(pop 1)
(push 1)
(assert (not (= z3v77 (z3f75 z3v98))))
(check-sat)
(pop 1)
(push 1)
(assert (not (= (z3f75 z3v98) (+ z3v77 1))))
(check-sat)
(pop 1)
(push 1)
(assert (not (= (z3f75 z3v98) (- z3v77 1))))
(check-sat)
(pop 1)
(push 1)
(assert (not (>= (z3f75 z3v98) (z3f75 z3v83))))
(check-sat)
(pop 1)
(push 1)
(assert (not (>= (z3f75 z3v98) (z3f75 z3v84))))
(check-sat)
(pop 1)
(push 1)
(assert (not (>= (z3f75 z3v98) (z3f75 z3v76))))
(check-sat)
(pop 1)
(push 1)
(assert (not (<= (z3f75 z3v98) (z3f75 z3v83))))
(check-sat)
(pop 1)
(push 1)
(assert (not (<= (z3f75 z3v98) (z3f75 z3v84))))
(check-sat)
(pop 1)
(push 1)
(assert (not (<= (z3f75 z3v98) (z3f75 z3v76))))
(check-sat)
(pop 1)
(push 1)
(assert (not (>  (z3f75 z3v98) (z3f75 z3v74))))
(check-sat)
(pop 1)
(push 1)
(assert (not (>  (z3f75 z3v98) (z3f75 z3v83))))
(check-sat)
(pop 1)
(push 1)
(assert (not (>  (z3f75 z3v98) (z3f75 z3v84))))
(check-sat)
(pop 1)
(push 1)
(assert (not (>  (z3f75 z3v98) (z3f75 z3v76))))
(check-sat)
(pop 1)
(push 1)
(assert (not (= (z3f75 z3v98) (z3f75 z3v83))))
(check-sat)
(pop 1)
(push 1)
(assert (not (= (z3f75 z3v98) (z3f75 z3v84))))
(check-sat)
(pop 1)
(push 1)
(assert (not (= (z3f75 z3v98) (z3f75 z3v76))))
(check-sat)
(pop 1)
(push 1)
(assert (not (<  (z3f75 z3v98) (z3f75 z3v74))))
(check-sat)
(pop 1)
(push 1)
(assert (not (<  (z3f75 z3v98) (z3f75 z3v83))))
(check-sat)
(pop 1)
(push 1)
(assert (not (<  (z3f75 z3v98) (z3f75 z3v84))))
(check-sat)
(pop 1)
(push 1)
(assert (not (<  (z3f75 z3v98) (z3f75 z3v76))))
(check-sat)
(pop 1)
(push 1)
(assert (not (= z3v98 z3v83)))
(check-sat)
(pop 1)
(push 1)
(assert (not (= z3v98 z3v84)))
(check-sat)
(pop 1)
(push 1)
(assert (not (= z3v98 z3v76)))
(check-sat)
(pop 1)
(push 1)
(assert (not (<  z3v98 z3v74)))
(check-sat)
(pop 1)
(push 1)
(assert (not (<  z3v98 z3v83)))
(check-sat)
(pop 1)
(push 1)
(assert (not (<  z3v98 z3v84)))
(check-sat)
(pop 1)
(push 1)
(assert (not (<  z3v98 z3v76)))
(check-sat)
(pop 1)
(push 1)
(assert (not (not (= z3v98 z3v74))))
(check-sat)
(pop 1)
(push 1)
(assert (not (not (= z3v98 z3v83))))
(check-sat)
(pop 1)
(push 1)
(assert (not (not (= z3v98 z3v84))))
(check-sat)
(pop 1)
(push 1)
(assert (not (not (= z3v98 z3v76))))
(check-sat)
(pop 1)
(push 1)
(assert (not (>  z3v98 z3v74)))
(check-sat)
(pop 1)
(push 1)
(assert (not (>  z3v98 z3v83)))
(check-sat)
(pop 1)
(push 1)
(assert (not (>  z3v98 z3v84)))
(check-sat)
(pop 1)
(push 1)
(assert (not (>  z3v98 z3v76)))
(check-sat)
(pop 1)
(push 1)
(assert (not (<= z3v98 z3v83)))
(check-sat)
(pop 1)
(push 1)
(assert (not (<= z3v98 z3v84)))
(check-sat)
(pop 1)
(push 1)
(assert (not (<= z3v98 z3v76)))
(check-sat)
(pop 1)
(push 1)
(assert (not (>= z3v98 z3v83)))
(check-sat)
(pop 1)
(push 1)
(assert (not (>= z3v98 z3v84)))
(check-sat)
(pop 1)
(push 1)
(assert (not (>= z3v98 z3v76)))
(check-sat)
(pop 1)
(pop 1)
(declare-fun z3v99 () Int)
(declare-fun z3v100 () Int)
(declare-fun z3v101 () Int)
(push 1)
(assert true)
(assert (and (=> (>= z3v77 0) (= (z3f75 z3v101) (ite (<  (z3f75 z3v99) z3v77) 0 (- (z3f75 z3v99) z3v77)))) (=> (not (>= z3v77 0)) (= (z3f75 z3v101) (z3f75 z3v99)))))
(assert (and (>= (z3f75 z3v74) 0) (>= (z3f75 z3v99) 0) (= z3v77 (z3f75 z3v76)) (z3f79 z3v78) (z3f79 z3v78) (= z3v78 z3v80) (z3f79 z3v81) (z3f79 z3v81) (= z3v81 z3v82) (>= (z3f75 z3v83) 0) (>= (z3f75 z3v84) 0) (= z3v84 z3v85) (= z3v87 (z3f86 z3v85 z3v74)) (= z3v87 z3v88) (>= (z3f75 z3v100) 0) (=> (>= z3v77 0) (= (z3f75 z3v100) (ite (<  (z3f75 z3v99) z3v77) 0 (- (z3f75 z3v99) z3v77)))) (=> (not (>= z3v77 0)) (= (z3f75 z3v100) (z3f75 z3v99))) (>= (z3f75 z3v76) 0) (z3f79 z3v72) (= (z3f91 z3v90) z3v90) (= (z3f91 z3v92) z3v92) (not (z3f79 z3v73)) (= (z3f91 z3v93) z3v93)))
(assert (>= (z3f75 z3v99) 0))
(assert (>= (z3f75 z3v99) (z3f75 z3v74)))
(assert (<= (z3f75 z3v99) (z3f75 z3v74)))
(assert (= (z3f75 z3v99) (z3f75 z3v74)))
(assert (= z3v99 z3v74))
(assert (<= z3v99 z3v74))
(assert (>= z3v99 z3v74))
(push 1)
(assert (not (>= (z3f75 z3v101) 0)))
(check-sat)
(pop 1)
(push 1)
(assert (not (= (z3f75 z3v101) 0)))
(check-sat)
(pop 1)
(push 1)
(assert (not (>  (z3f75 z3v101) 0)))
(check-sat)
(pop 1)
(push 1)
(assert (not (= z3v77 (z3f75 z3v101))))
(check-sat)
(pop 1)
(push 1)
(assert (not (= (z3f75 z3v101) (+ z3v77 1))))
(check-sat)
(pop 1)
(push 1)
(assert (not (= (z3f75 z3v101) (- z3v77 1))))
(check-sat)
(pop 1)
(push 1)
(assert (not (>= (z3f75 z3v101) (z3f75 z3v74))))
(check-sat)
(pop 1)
(push 1)
(assert (not (>= (z3f75 z3v101) (z3f75 z3v99))))
(check-sat)
(pop 1)
(push 1)
(assert (not (>= (z3f75 z3v101) (z3f75 z3v83))))
(check-sat)
(pop 1)
(push 1)
(assert (not (>= (z3f75 z3v101) (z3f75 z3v84))))
(check-sat)
(pop 1)
(push 1)
(assert (not (>= (z3f75 z3v101) (z3f75 z3v76))))
(check-sat)
(pop 1)
(push 1)
(assert (not (<= (z3f75 z3v101) (z3f75 z3v74))))
(check-sat)
(pop 1)
(push 1)
(assert (not (<= (z3f75 z3v101) (z3f75 z3v99))))
(check-sat)
(pop 1)
(push 1)
(assert (not (<= (z3f75 z3v101) (z3f75 z3v83))))
(check-sat)
(pop 1)
(push 1)
(assert (not (<= (z3f75 z3v101) (z3f75 z3v84))))
(check-sat)
(pop 1)
(push 1)
(assert (not (<= (z3f75 z3v101) (z3f75 z3v76))))
(check-sat)
(pop 1)
(push 1)
(assert (not (>  (z3f75 z3v101) (z3f75 z3v74))))
(check-sat)
(pop 1)
(push 1)
(assert (not (>  (z3f75 z3v101) (z3f75 z3v99))))
(check-sat)
(pop 1)
(push 1)
(assert (not (>  (z3f75 z3v101) (z3f75 z3v83))))
(check-sat)
(pop 1)
(push 1)
(assert (not (>  (z3f75 z3v101) (z3f75 z3v84))))
(check-sat)
(pop 1)
(push 1)
(assert (not (>  (z3f75 z3v101) (z3f75 z3v76))))
(check-sat)
(pop 1)
(push 1)
(assert (not (= (z3f75 z3v101) (z3f75 z3v74))))
(check-sat)
(pop 1)
(push 1)
(assert (not (= (z3f75 z3v101) (z3f75 z3v99))))
(check-sat)
(pop 1)
(push 1)
(assert (not (= (z3f75 z3v101) (z3f75 z3v83))))
(check-sat)
(pop 1)
(push 1)
(assert (not (= (z3f75 z3v101) (z3f75 z3v84))))
(check-sat)
(pop 1)
(push 1)
(assert (not (= (z3f75 z3v101) (z3f75 z3v76))))
(check-sat)
(pop 1)
(push 1)
(assert (not (<  (z3f75 z3v101) (z3f75 z3v74))))
(check-sat)
(pop 1)
(push 1)
(assert (not (<  (z3f75 z3v101) (z3f75 z3v99))))
(check-sat)
(pop 1)
(push 1)
(assert (not (<  (z3f75 z3v101) (z3f75 z3v83))))
(check-sat)
(pop 1)
(push 1)
(assert (not (<  (z3f75 z3v101) (z3f75 z3v84))))
(check-sat)
(pop 1)
(push 1)
(assert (not (<  (z3f75 z3v101) (z3f75 z3v76))))
(check-sat)
(pop 1)
(push 1)
(assert (not (= z3v101 z3v74)))
(check-sat)
(pop 1)
(push 1)
(assert (not (= z3v101 z3v99)))
(check-sat)
(pop 1)
(push 1)
(assert (not (= z3v101 z3v83)))
(check-sat)
(pop 1)
(push 1)
(assert (not (= z3v101 z3v84)))
(check-sat)
(pop 1)
(push 1)
(assert (not (= z3v101 z3v76)))
(check-sat)
(pop 1)
(push 1)
(assert (not (<  z3v101 z3v74)))
(check-sat)
(pop 1)
(push 1)
(assert (not (<  z3v101 z3v99)))
(check-sat)
(pop 1)
(push 1)
(assert (not (<  z3v101 z3v83)))
(check-sat)
(pop 1)
(push 1)
(assert (not (<  z3v101 z3v84)))
(check-sat)
(pop 1)
(push 1)
(assert (not (<  z3v101 z3v76)))
(check-sat)
(pop 1)
(push 1)
(assert (not (not (= z3v101 z3v74))))
(check-sat)
(pop 1)
(push 1)
(assert (not (not (= z3v101 z3v99))))
(check-sat)
(pop 1)
(push 1)
(assert (not (not (= z3v101 z3v83))))
(check-sat)
(pop 1)
(push 1)
(assert (not (not (= z3v101 z3v84))))
(check-sat)
(pop 1)
(push 1)
(assert (not (not (= z3v101 z3v76))))
(check-sat)
(pop 1)
(push 1)
(assert (not (>  z3v101 z3v74)))
(check-sat)
(pop 1)
(push 1)
(assert (not (>  z3v101 z3v99)))
(check-sat)
(pop 1)
(push 1)
(assert (not (>  z3v101 z3v83)))
(check-sat)
(pop 1)
(push 1)
(assert (not (>  z3v101 z3v84)))
(check-sat)
(pop 1)
(push 1)
(assert (not (>  z3v101 z3v76)))
(check-sat)
(pop 1)
(push 1)
(assert (not (<= z3v101 z3v74)))
(check-sat)
(pop 1)
(push 1)
(assert (not (<= z3v101 z3v99)))
(check-sat)
(pop 1)
(push 1)
(assert (not (<= z3v101 z3v83)))
(check-sat)
(pop 1)
(push 1)
(assert (not (<= z3v101 z3v84)))
(check-sat)
(pop 1)
(push 1)
(assert (not (<= z3v101 z3v76)))
(check-sat)
(pop 1)
(push 1)
(assert (not (>= z3v101 z3v74)))
(check-sat)
(pop 1)
(push 1)
(assert (not (>= z3v101 z3v99)))
(check-sat)
(pop 1)
(push 1)
(assert (not (>= z3v101 z3v83)))
(check-sat)
(pop 1)
(push 1)
(assert (not (>= z3v101 z3v84)))
(check-sat)
(pop 1)
(push 1)
(assert (not (>= z3v101 z3v76)))
(check-sat)
(pop 1)
(push 1)
(assert (not (>= (z3f75 z3v101) 0)))
(check-sat)
(pop 1)
(push 1)
(assert (not (= (z3f75 z3v101) 0)))
(check-sat)
(pop 1)
(push 1)
(assert (not (>  (z3f75 z3v101) 0)))
(check-sat)
(pop 1)
(push 1)
(assert (not (= z3v77 (z3f75 z3v101))))
(check-sat)
(pop 1)
(push 1)
(assert (not (= (z3f75 z3v101) (+ z3v77 1))))
(check-sat)
(pop 1)
(push 1)
(assert (not (= (z3f75 z3v101) (- z3v77 1))))
(check-sat)
(pop 1)
(push 1)
(assert (not (>= (z3f75 z3v101) (z3f75 z3v74))))
(check-sat)
(pop 1)
(push 1)
(assert (not (>= (z3f75 z3v101) (z3f75 z3v83))))
(check-sat)
(pop 1)
(push 1)
(assert (not (>= (z3f75 z3v101) (z3f75 z3v84))))
(check-sat)
(pop 1)
(push 1)
(assert (not (>= (z3f75 z3v101) (z3f75 z3v76))))
(check-sat)
(pop 1)
(push 1)
(assert (not (<= (z3f75 z3v101) (z3f75 z3v74))))
(check-sat)
(pop 1)
(push 1)
(assert (not (<= (z3f75 z3v101) (z3f75 z3v83))))
(check-sat)
(pop 1)
(push 1)
(assert (not (<= (z3f75 z3v101) (z3f75 z3v84))))
(check-sat)
(pop 1)
(push 1)
(assert (not (<= (z3f75 z3v101) (z3f75 z3v76))))
(check-sat)
(pop 1)
(push 1)
(assert (not (>  (z3f75 z3v101) (z3f75 z3v74))))
(check-sat)
(pop 1)
(push 1)
(assert (not (>  (z3f75 z3v101) (z3f75 z3v83))))
(check-sat)
(pop 1)
(push 1)
(assert (not (>  (z3f75 z3v101) (z3f75 z3v84))))
(check-sat)
(pop 1)
(push 1)
(assert (not (>  (z3f75 z3v101) (z3f75 z3v76))))
(check-sat)
(pop 1)
(push 1)
(assert (not (= (z3f75 z3v101) (z3f75 z3v74))))
(check-sat)
(pop 1)
(push 1)
(assert (not (= (z3f75 z3v101) (z3f75 z3v83))))
(check-sat)
(pop 1)
(push 1)
(assert (not (= (z3f75 z3v101) (z3f75 z3v84))))
(check-sat)
(pop 1)
(push 1)
(assert (not (= (z3f75 z3v101) (z3f75 z3v76))))
(check-sat)
(pop 1)
(push 1)
(assert (not (<  (z3f75 z3v101) (z3f75 z3v74))))
(check-sat)
(pop 1)
(push 1)
(assert (not (<  (z3f75 z3v101) (z3f75 z3v83))))
(check-sat)
(pop 1)
(push 1)
(assert (not (<  (z3f75 z3v101) (z3f75 z3v84))))
(check-sat)
(pop 1)
(push 1)
(assert (not (<  (z3f75 z3v101) (z3f75 z3v76))))
(check-sat)
(pop 1)
(push 1)
(assert (not (= z3v101 z3v74)))
(check-sat)
(pop 1)
(push 1)
(assert (not (= z3v101 z3v83)))
(check-sat)
(pop 1)
(push 1)
(assert (not (= z3v101 z3v84)))
(check-sat)
(pop 1)
(push 1)
(assert (not (= z3v101 z3v76)))
(check-sat)
(pop 1)
(push 1)
(assert (not (<  z3v101 z3v74)))
(check-sat)
(pop 1)
(push 1)
(assert (not (<  z3v101 z3v83)))
(check-sat)
(pop 1)
(push 1)
(assert (not (<  z3v101 z3v84)))
(check-sat)
(pop 1)
(push 1)
(assert (not (<  z3v101 z3v76)))
(check-sat)
(pop 1)
(push 1)
(assert (not (not (= z3v101 z3v74))))
(check-sat)
(pop 1)
(push 1)
(assert (not (not (= z3v101 z3v83))))
(check-sat)
(pop 1)
(push 1)
(assert (not (not (= z3v101 z3v84))))
(check-sat)
(pop 1)
(push 1)
(assert (not (not (= z3v101 z3v76))))
(check-sat)
(pop 1)
(push 1)
(assert (not (>  z3v101 z3v74)))
(check-sat)
(pop 1)
(push 1)
(assert (not (>  z3v101 z3v83)))
(check-sat)
(pop 1)
(push 1)
(assert (not (>  z3v101 z3v84)))
(check-sat)
(pop 1)
(push 1)
(assert (not (>  z3v101 z3v76)))
(check-sat)
(pop 1)
(push 1)
(assert (not (<= z3v101 z3v74)))
(check-sat)
(pop 1)
(push 1)
(assert (not (<= z3v101 z3v83)))
(check-sat)
(pop 1)
(push 1)
(assert (not (<= z3v101 z3v84)))
(check-sat)
(pop 1)
(push 1)
(assert (not (<= z3v101 z3v76)))
(check-sat)
(pop 1)
(push 1)
(assert (not (>= z3v101 z3v74)))
(check-sat)
(pop 1)
(push 1)
(assert (not (>= z3v101 z3v83)))
(check-sat)
(pop 1)
(push 1)
(assert (not (>= z3v101 z3v84)))
(check-sat)
(pop 1)
(push 1)
(assert (not (>= z3v101 z3v76)))
(check-sat)
(pop 1)
(pop 1)
(declare-fun z3v102 () Int)
(declare-fun z3v103 () Int)
(push 1)
(assert true)
(assert (<= (z3f75 z3v103) (z3f75 z3v74)))
(assert (>= (z3f75 z3v103) 0))
(assert (and (>= (z3f75 z3v74) 0) (= z3v77 (z3f75 z3v76)) (z3f79 z3v78) (z3f79 z3v78) (= z3v78 z3v80) (z3f79 z3v81) (z3f79 z3v81) (= z3v81 z3v82) (>= (z3f75 z3v83) 0) (>= (z3f75 z3v84) 0) (= z3v84 z3v85) (= z3v87 (z3f86 z3v85 z3v74)) (= z3v87 z3v88) (>= (z3f75 z3v102) 0) (>= (z3f75 z3v76) 0) (z3f79 z3v72) (= (z3f91 z3v90) z3v90) (= (z3f91 z3v92) z3v92) (not (z3f79 z3v73)) (= (z3f91 z3v93) z3v93)))
(assert (<= (z3f75 z3v102) (z3f75 z3v74)))
(assert (>= (z3f75 z3v102) 0))
(push 1)
(assert (not (>  (z3f75 z3v103) 0)))
(check-sat)
(pop 1)
(pop 1)
(declare-fun z3v104 () Int)
(push 1)
(assert true)
(assert (and (=> (>= z3v77 0) (= (z3f75 z3v104) (ite (<  (z3f75 z3v99) z3v77) 0 (- (z3f75 z3v99) z3v77)))) (=> (not (>= z3v77 0)) (= (z3f75 z3v104) (z3f75 z3v99)))))
(assert (and (>= (z3f75 z3v74) 0) (>= (z3f75 z3v99) 0) (= z3v77 (z3f75 z3v76)) (z3f79 z3v78) (z3f79 z3v78) (= z3v78 z3v80) (z3f79 z3v81) (z3f79 z3v81) (= z3v81 z3v82) (>= (z3f75 z3v83) 0) (>= (z3f75 z3v84) 0) (= z3v84 z3v85) (= z3v87 (z3f86 z3v85 z3v74)) (= z3v87 z3v88) (>= (z3f75 z3v100) 0) (=> (>= z3v77 0) (= (z3f75 z3v100) (ite (<  (z3f75 z3v99) z3v77) 0 (- (z3f75 z3v99) z3v77)))) (=> (not (>= z3v77 0)) (= (z3f75 z3v100) (z3f75 z3v99))) (>= (z3f75 z3v76) 0) (z3f79 z3v72) (= (z3f91 z3v90) z3v90) (= (z3f91 z3v92) z3v92) (not (z3f79 z3v73)) (= (z3f91 z3v93) z3v93)))
(assert (= z3v99 z3v74))
(assert (= (z3f75 z3v99) (z3f75 z3v74)))
(assert (>= (z3f75 z3v99) 0))
(push 1)
(assert (not (and (>= (z3f75 z3v104) 0) (<= (z3f75 z3v104) (z3f75 z3v74)) (>= (z3f75 z3v104) 0) (<= (z3f75 z3v104) (z3f75 z3v74)) (<= (z3f75 z3v104) (z3f75 z3v99)))))
(check-sat)
(pop 1)
(pop 1)
(declare-fun z3v105 () Int)
(push 1)
(assert true)
(assert (= z3v105 z3v74))
(assert (= (z3f75 z3v105) (z3f75 z3v74)))
(assert (>= (z3f75 z3v105) 0))
(assert (and (>= (z3f75 z3v74) 0) (= z3v77 (z3f75 z3v76)) (z3f79 z3v78) (z3f79 z3v78) (= z3v78 z3v80) (z3f79 z3v81) (z3f79 z3v81) (= z3v81 z3v82) (>= (z3f75 z3v83) 0) (>= (z3f75 z3v84) 0) (= z3v84 z3v85) (= z3v87 (z3f86 z3v85 z3v74)) (= z3v87 z3v88) (>= (z3f75 z3v97) 0) (>= (z3f75 z3v76) 0) (z3f79 z3v72) (= (z3f91 z3v90) z3v90) (= (z3f91 z3v92) z3v92) (not (z3f79 z3v73)) (= (z3f91 z3v93) z3v93)))
(assert (= z3v97 z3v74))
(assert (= (z3f75 z3v97) (z3f75 z3v74)))
(assert (>= (z3f75 z3v97) 0))
(push 1)
(assert (not (and (>= (z3f75 z3v105) 0) (= (z3f75 z3v105) (z3f75 z3v74)) (= z3v105 z3v74))))
(check-sat)
(pop 1)
(pop 1)
(declare-fun z3v106 () Int)
(push 1)
(assert true)
(assert (= (z3f75 z3v106) (z3f75 z3v74)))
(assert (= z3v106 z3v74))
(assert (>= (z3f75 z3v106) 0))
(assert (and (>= (z3f75 z3v74) 0) (= z3v77 (z3f75 z3v76)) (z3f79 z3v78) (z3f79 z3v78) (= z3v78 z3v80) (z3f79 z3v81) (z3f79 z3v81) (= z3v81 z3v82) (>= (z3f75 z3v83) 0) (>= (z3f75 z3v84) 0) (= z3v84 z3v85) (= z3v87 (z3f86 z3v85 z3v74)) (= z3v87 z3v88) (>= (z3f75 z3v95) 0) (>= (z3f75 z3v76) 0) (z3f79 z3v72) (= (z3f91 z3v90) z3v90) (= (z3f91 z3v92) z3v92) (not (z3f79 z3v73)) (= (z3f91 z3v93) z3v93)))
(assert (= (z3f75 z3v95) (z3f75 z3v74)))
(assert (= z3v95 z3v74))
(assert (>= (z3f75 z3v95) 0))
(push 1)
(assert (not (and (>= (z3f75 z3v106) 0) (= (z3f75 z3v106) (z3f75 z3v74)) (= z3v106 z3v74))))
(check-sat)
(pop 1)
(pop 1)
(declare-fun z3v107 () Int)
(push 1)
(assert true)
(assert (= z3v107 z3v74))
(assert (>= (z3f75 z3v107) 0))
(assert (and (>= (z3f75 z3v74) 0) (= z3v77 (z3f75 z3v76)) (z3f79 z3v78) (z3f79 z3v78) (= z3v78 z3v80) (z3f79 z3v81) (z3f79 z3v81) (= z3v81 z3v82) (>= (z3f75 z3v83) 0) (>= (z3f75 z3v84) 0) (= z3v84 z3v85) (= z3v87 (z3f86 z3v85 z3v74)) (= z3v87 z3v88) (>= (z3f75 z3v89) 0) (= z3v89 z3v74) (>= (z3f75 z3v89) 0) (>= (z3f75 z3v76) 0) (z3f79 z3v72) (= (z3f91 z3v90) z3v90) (= (z3f91 z3v92) z3v92) (not (z3f79 z3v73)) (= (z3f91 z3v93) z3v93)))
(push 1)
(assert (not (and (>= (z3f75 z3v107) 0) (= z3v107 z3v74) (= (z3f75 z3v107) (z3f75 z3v74)))))
(check-sat)
(pop 1)
(pop 1)
